25 50
1 2 5
1 6 3
2 3 1
2 7 4
3 4 3
3 8 3
4 5 5
4 9 2
5 10 2
6 7 2
6 11 2
7 8 5
7 12 3
8 9 5
8 13 4
9 10 1
9 14 1
10 15 4
11 12 3
11 16 4
12 13 4
12 17 1
13 14 5
13 18 2
14 15 3
14 19 3
15 20 2
16 17 5
16 21 1
17 18 5
17 22 5
18 19 1
18 23 3
19 20 2
19 24 2
20 25 1
21 22 3
22 23 4
23 24 3
24 25 5
1 21 3
2 22 1
3 23 5
4 24 1
5 25 1
1 5 2
6 10 2
11 15 5
16 20 3
21 25 1
